
Gurobi 7.0.1 (win64) logging started 01/30/18 15:55:10

Set parameter TimeLimit to value 3600
Set parameter Threads to value 4

Gurobi Optimizer version 7.0.1 build v7.0.1rc0 (win64)
Copyright (c) 2016, Gurobi Optimization, Inc.

Read LP format model from file waterstop_5_180114_64min_keiro_6team_no30.lp
Reading time = 0.24 seconds
Objective: 47847 rows, 16866 columns, 185931 nonzeros
Optimize a model with 47847 rows, 16866 columns and 185931 nonzeros
Variable types: 108 continuous, 16758 integer (0 binary)
Coefficient statistics:
  Matrix range     [3e-01, 1e+02]
  Objective range  [1e+00, 1e+00]
  Bounds range     [1e+00, 1e+00]
  RHS range        [1e+00, 1e+02]
Presolve removed 47847 rows and 16866 columns
Presolve time: 0.06s
Presolve: All rows and columns removed

Explored 0 nodes (0 simplex iterations) in 0.16 seconds
Thread count was 1 (of 20 available processors)

Solution count 1: 0 
Pool objective bound 0

Optimal solution found (tolerance 1.00e-04)
Best objective 0.000000000000e+00, best bound 0.000000000000e+00, gap -

Wrote result file 'waterstop_5_180114_64min_keiro_6team_no30.sol'

